(set-logic HORN)
(declare-fun state (Int Int (Array Int Int) Int Int Bool Bool Bool Int) Bool)
(assert (forall ((|main@%tmp8.i_0_9| Int) (|.y.9| Int) (|main@%shadow.mem.3_0_3| (Array Int Int)) (|main@%x.0.i_0_1| Int) (|main@%tmp2.i_0_9| Int) (|.loc.10| Bool) (|.loc.11| Bool) (|.loc.12| Bool) (|main@%tmp55.i_0_0| Int) (|.loc.19| Bool) (|.loc.18| Bool) (|.y.17| Int) (|.y.16| Int) (|.y.13| Int) (|.y.15| (Array Int Int)) (|.y.14| Int) (|.loc.20| Bool) (|.xtv.1| Int)) (=> (and (and (not .loc.10) (not .loc.11)) (not .loc.12)) (state |main@%tmp8.i_0_9| |.y.9| |main@%shadow.mem.3_0_3| |main@%x.0.i_0_1| |main@%tmp2.i_0_9| |.loc.10| |.loc.11| |.loc.12| |main@%tmp55.i_0_0|))))
(assert (forall ((|main@%tmp8.i_0_9| Int) (|.y.9| Int) (|main@%shadow.mem.3_0_3| (Array Int Int)) (|main@%x.0.i_0_1| Int) (|main@%tmp2.i_0_9| Int) (|.loc.10| Bool) (|.loc.11| Bool) (|.loc.12| Bool) (|main@%tmp55.i_0_0| Int) (|.loc.19| Bool) (|.loc.18| Bool) (|.y.17| Int) (|.y.16| Int) (|.y.13| Int) (|.y.15| (Array Int Int)) (|.y.14| Int) (|.loc.20| Bool) (|.xtv.1| Int)) (=> (and (state |main@%tmp8.i_0_9| |.y.9| |main@%shadow.mem.3_0_3| |main@%x.0.i_0_1| |main@%tmp2.i_0_9| |.loc.10| |.loc.11| |.loc.12| |main@%tmp55.i_0_0|) (let ((.def_19 (not .loc.10))) (let ((.def_20 (not .loc.11))) (let ((.def_22 (not .loc.12))) (let ((.def_27 (= (select main@%shadow.mem.3_0_3 main@%tmp55.i_0_0) 45))) (let ((.def_41 (<= main@%tmp8.i_0_9 0))) (let ((.def_42 (or (not (<= main@%tmp55.i_0_0 0)) .def_41))) (let ((.def_44 (not .def_41))) (let ((.def_45 (and (and (and (not (<= main@%tmp2.i_0_9 main@%x.0.i_0_1)) (= (+ main@%tmp8.i_0_9 (+ main@%x.0.i_0_1 (* (- 1) main@%tmp55.i_0_0))) 0)) .def_42) .def_44))) (let ((.def_51 (not .loc.18))) (let ((.def_57 (not .loc.19))) (let ((.def_61 (<= main@%x.0.i_0_1 .y.9))) (let ((.def_64 (= main@%tmp8.i_0_9 .y.13))) (let ((.def_67 (= main@%shadow.mem.3_0_3 .y.15))) (let ((.def_93 (= .y.14 0))) (let ((.def_95 (= main@%x.0.i_0_1 .y.16))) (let ((.def_100 (and .def_42 .def_44))) (let ((.def_110 (= (+ .y.9 (* (- 1) .y.14)) (- 1)))) (let ((.def_115 (= (+ main@%tmp8.i_0_9 (+ .y.9 (* (- 1) main@%tmp55.i_0_0))) 0))) (let ((.def_117 (not .def_61))) (let ((.def_131 (not .loc.20))) (let ((.def_137 (and .loc.10 .def_100))) (or (or (or (or (or (or (and (or (or (and (and .loc.12 .def_20) (or (or (and (and (and .loc.10 (and (not .def_27) .def_45)) .loc.19) .def_51) (and (= main@%x.0.i_0_1 .y.17) (and (and (and (and (= .y.16 0) (and .def_19 (and .loc.18 .def_57))) .def_61) .def_64) .def_67))) (and (= main@%tmp2.i_0_9 .y.17) (and (= (+ main@%x.0.i_0_1 (* (- 1) .y.16)) (- 1)) (and .def_67 (and .def_64 (and .def_57 (and .loc.18 (and .loc.10 (and .def_27 .def_45)))))))))) (and (and (and .def_22 (and .def_67 (and .def_64 (and .def_61 (and .def_57 (and .def_51 (and .loc.10 .loc.11))))))) .def_93) .def_95)) (and (and (and (= .y.15 (store main@%shadow.mem.3_0_3 main@%tmp55.i_0_0 45)) (and (and .def_95 (and .def_64 (and .def_19 (and .def_57 (and .def_51 (and .def_20 (and .loc.12 .def_100))))))) .def_110)) .def_115) .def_117)) .loc.20) (and (and .def_95 (and .def_93 (and .def_22 (and .def_67 (and .def_64 (and .def_61 (and .def_19 (and .loc.19 (and .loc.11 .loc.18))))))))) .def_131)) (and (= .y.15 (store main@%shadow.mem.3_0_3 main@%tmp55.i_0_0 44)) (and .def_131 (and .def_117 (and .def_115 (and .def_110 (and .def_95 (and .def_22 (and .def_64 (and .loc.19 (and .loc.18 (and .loc.11 .def_137)))))))))))) (and .def_131 (and .def_95 (and .def_93 (and .def_22 (and .def_67 (and .def_64 (and .def_61 (and .def_51 (and .loc.19 (and .loc.10 .def_20))))))))))) (and (= .y.15 (store main@%shadow.mem.3_0_3 main@%tmp55.i_0_0 43)) (and .def_131 (and .def_117 (and .def_115 (and .def_110 (and .def_95 (and .def_22 (and .def_64 (and .def_19 (and .def_51 (and .loc.19 (and .loc.11 .def_100))))))))))))) (and (not (<= .y.16 0)) (and (not (<= .y.13 0)) (and .def_131 (and .def_93 (and .def_22 (and .def_19 (and .def_57 (and .def_20 .loc.18))))))))) (and (= .y.15 (store main@%shadow.mem.3_0_3 main@%tmp55.i_0_0 42)) (and .def_131 (and .def_117 (and .def_115 (and .def_110 (and .def_95 (and .def_22 (and .def_64 (and .def_57 (and .loc.18 (and .def_20 .def_137)))))))))))))))))))))))))))))))))) (state |.y.13| |.y.14| |.y.15| |.y.16| |.y.17| |.loc.18| |.loc.19| |.loc.20| |.xtv.1|))))
(assert (forall ((|main@%tmp8.i_0_9| Int) (|.y.9| Int) (|main@%shadow.mem.3_0_3| (Array Int Int)) (|main@%x.0.i_0_1| Int) (|main@%tmp2.i_0_9| Int) (|.loc.10| Bool) (|.loc.11| Bool) (|.loc.12| Bool) (|main@%tmp55.i_0_0| Int) (|.loc.19| Bool) (|.loc.18| Bool) (|.y.17| Int) (|.y.16| Int) (|.y.13| Int) (|.y.15| (Array Int Int)) (|.y.14| Int) (|.loc.20| Bool) (|.xtv.1| Int)) (=> (state |main@%tmp8.i_0_9| |.y.9| |main@%shadow.mem.3_0_3| |main@%x.0.i_0_1| |main@%tmp2.i_0_9| |.loc.10| |.loc.11| |.loc.12| |main@%tmp55.i_0_0|) (not (and .loc.12 (and .loc.11 (not .loc.10)))))))
(check-sat)
